(set-info :smt-lib-version 2.6)
(set-logic QF_SLIA)
(set-info :source |
Generated by: Joel Day, Thorsten Ehlers, Mitja Kulczynski, Federico Mora, Florin Manea, Dirk Nowotka, Danny Poulsen, Zhengyang Lu
Application: Test WOORPJE
Target solver: WOORPJE
Publications: Day, J. D., Ehlers, T., Kulczynski, M., Manea, F., Nowotka, D., & Poulsen, D. B. (2019). On solving word equations using SAT. In RP 2019
Description: Enriches a system of 30 word equations by suitable linear constraints
|)
(set-info :license "https://creativecommons.org/licenses/by/4.0/")
(set-info :category "random")
(set-info :status unknown)

(declare-fun I () String)
(declare-fun E () String)
(declare-fun A () String)
(assert (= (str.++  I "bddeeffdab" A "b" I "abcfbbbaa")  (str.++  I "bddeeffda" E "fbe" I "defebcab" I "fbbbaa") ))
(assert (= (str.++  "addadaebaeeaeffdbacfeafbf" I "f" I "fbaafdeabbea")  (str.++  "addadaebaeeaeffdbacfeafbf" I "fcfbaafdeabbea") ))
(assert (= (str.++  "fcafbfafeffeca" I I "fbfcfad" I "af" I I "d" I I "bbecfa" I "af")  (str.++  "f" I "afbfafeffe" I "a" I "cfbf" I "fadcafc" I "dccbbecfa" I "af") ))
(assert (>=(* (str.len E) 19) 209))
(assert (<=(* (str.len E) 1) 47))
(check-sat)

(exit)
